sat
(:max-memory              87.17
 :memory                  31.50
 :num-allocs              958182422
 :rlimit-count            4130911
 :sat-backjumps           5499
 :sat-backtracks          28
 :sat-conflicts           5527
 :sat-decisions           19770
 :sat-del-clause          137415
 :sat-elim-bool-vars-res  26046
 :sat-elim-literals       2761
 :sat-minimized-lits      47769
 :sat-mk-clause-2ary      81060
 :sat-mk-clause-3ary      35070
 :sat-mk-clause-nary      225982
 :sat-mk-var              54864
 :sat-probing-assigned    57
 :sat-propagations-2ary   1384173
 :sat-propagations-nary   1557795
 :sat-restarts            829
 :sat-scc-elim-binary     231
 :sat-scc-elim-vars       70
 :sat-subs-resolution     2542
 :sat-subs-resolution-dyn 4197
 :sat-subsumed            28868
 :sat-units               74
 :time                    2.25
 :total-time              2.28)
